WARNING: for repeatability, setting FPU to use double precision
============================[ Problem Statistics ]=============================
|                                                                             |
|  Number of variables:           100                                         |
|  Number of clauses:             449                                         |
|  Parse time:                   0.00 s                                       |
|  Eliminated clauses:           0.00 Mb                                      |
|  Simplification time:          0.00 s                                       |
|                                                                             |
============================[ Search Statistics ]==============================
| Conflicts |          ORIGINAL         |          LEARNT          | Progress |
|           |    Vars  Clauses Literals |    Limit  Clauses Lit/Cl |          |
===============================================================================
|       100 |      98      438     1322 |      160      100      6 |  0.020 % |
===============================================================================
restarts              : 3
conflicts             : 237            (74858 /sec)
decisions             : 324            (0.00 % random) (102337 /sec)
propagations          : 5714           (1804801 /sec)
conflict literals     : 1434           (17.01 % deleted)
Memory used           : 13.00 MB
CPU time              : 0.003166 s

SATISFIABLE
